Set parameter TokenServer to value "hpc-licenses.hpcc.usc.edu"
Set parameter TimeLimit to value 3600
Gurobi Optimizer version 9.5.1 build v9.5.1rc2 (linux64)
Thread count: 20 physical cores, 20 logical processors, using up to 20 threads
Optimize a model with 14015 rows, 10581 columns and 64598 nonzeros
Model fingerprint: 0x415f7f4d
Variable types: 10514 continuous, 67 integer (67 binary)
Coefficient statistics:
  Matrix range     [1e+00, 1e+00]
  Objective range  [2e-03, 2e+00]
  Bounds range     [1e+00, 1e+00]
  RHS range        [1e+00, 1e+02]
Presolve removed 3086 rows and 3065 columns
Presolve time: 0.30s
Presolved: 10929 rows, 7516 columns, 59737 nonzeros
Variable types: 7456 continuous, 60 integer (60 binary)
Found heuristic solution: objective 278.6860052

Root relaxation: objective 2.901867e+02, 3836 iterations, 0.21 seconds (0.23 work units)

    Nodes    |    Current Node    |     Objective Bounds      |     Work
 Expl Unexpl |  Obj  Depth IntInf | Incumbent    BestBd   Gap | It/Node Time

     0     0  290.18674    0    6  278.68601  290.18674  4.13%     -    0s
H    0     0                     280.5651520  290.18674  3.43%     -    0s
H    0     0                     282.5385445  290.18674  2.71%     -    0s
     0     0  290.11842    0   15  282.53854  290.11842  2.68%     -    1s
     0     0  290.11842    0   15  282.53854  290.11842  2.68%     -    1s
     0     0  290.10246    0   20  282.53854  290.10246  2.68%     -    1s
     0     0  290.10235    0   19  282.53854  290.10235  2.68%     -    1s
     0     0  290.07528    0   21  282.53854  290.07528  2.67%     -    1s
     0     0  290.07327    0   20  282.53854  290.07327  2.67%     -    1s
     0     0  289.95516    0   21  282.53854  289.95516  2.62%     -    2s
H    0     0                     284.0088308  289.95516  2.09%     -    2s
     0     0  289.95516    0   23  284.00883  289.95516  2.09%     -    2s
     0     0  289.95516    0   20  284.00883  289.95516  2.09%     -    2s
     0     0  289.95379    0   19  284.00883  289.95379  2.09%     -    2s
     0     0  289.87637    0   26  284.00883  289.87637  2.07%     -    2s
     0     0  289.79002    0   23  284.00883  289.79002  2.04%     -    2s
     0     0  289.77638    0   26  284.00883  289.77638  2.03%     -    3s
     0     0  289.77638    0   27  284.00883  289.77638  2.03%     -    3s
     0     0  289.76213    0   24  284.00883  289.76213  2.03%     -    3s
     0     0  289.75818    0   23  284.00883  289.75818  2.02%     -    3s
     0     2  289.75818    0   23  284.00883  289.75818  2.02%     -    4s
     1     4  289.75818    1   17  284.00883  289.75818  2.02%  1027    5s
*   20    10               4     286.4827850  289.75818  1.14%   586    6s
H   38    14                     286.4926980  289.72163  1.13%   495    8s
*   41    14               6     286.5435209  289.72163  1.11%   473    8s
    72    26  289.30002    9   11  286.54352  289.67022  1.09%   374   10s
   236    30  287.90375   15    4  286.54352  289.24148  0.94%   269   15s
   493    31  289.13230   18    6  286.54352  289.13230  0.90%   218   22s
   735    25  288.73403   23    6  286.54352  288.86885  0.81%   191   25s
*  849    43              27     286.5940661  288.64545  0.72%   186   26s
  1017    12  286.83467   30    2  286.59407  288.64545  0.72%   169   30s

Cutting planes:
  Gomory: 2
  MIR: 88
  Flow cover: 20
  RLT: 32
  Relax-and-lift: 15

Explored 1099 nodes (188188 simplex iterations) in 30.70 seconds (10.52 work units)
Thread count was 20 (of 20 available processors)

Solution count 8: 286.594 286.544 286.493 ... 278.686

Optimal solution found (tolerance 1.00e-04)
Best objective 2.865940661323e+02, best bound 2.865940661323e+02, gap 0.0000%



#########node  1
V1.8
#########node  2
V2.9
#########node  3
V1.7
#########node  4
1.0000000000000002,0.0
#########node  5
1.6653345369377348e-16,0.9999999999999999
#########node  6
0.781818181818182,0.2181818181818182
#########node  7
1.0,0.0


Total Solving Time 31.556415557861328
obj value 286.59406613227463
Policy Regret train (Sum) 3.819270947054313
Best Treatment Found train (%) 73.8
treatment classification acc train (%) 33.2
Policy Regret test (Sum) 36.35067388096685
Best Treatment Found test (%) 82.19
treatment classification acc test (%) 35.620000000000005
Set parameter TokenServer to value "hpc-licenses.hpcc.usc.edu"
Set parameter TimeLimit to value 3600
Gurobi Optimizer version 9.5.1 build v9.5.1rc2 (linux64)
Thread count: 20 physical cores, 20 logical processors, using up to 20 threads
Optimize a model with 14015 rows, 10581 columns and 64598 nonzeros
Model fingerprint: 0x415f7f4d
Variable types: 10514 continuous, 67 integer (67 binary)
Coefficient statistics:
  Matrix range     [1e+00, 1e+00]
  Objective range  [2e-03, 2e+00]
  Bounds range     [1e+00, 1e+00]
  RHS range        [1e+00, 1e+02]
Presolve removed 3086 rows and 3065 columns
Presolve time: 0.22s
Presolved: 10929 rows, 7516 columns, 59737 nonzeros
Variable types: 7456 continuous, 60 integer (60 binary)
Found heuristic solution: objective 278.6860052

Root relaxation: objective 2.901867e+02, 3836 iterations, 0.22 seconds (0.23 work units)

    Nodes    |    Current Node    |     Objective Bounds      |     Work
 Expl Unexpl |  Obj  Depth IntInf | Incumbent    BestBd   Gap | It/Node Time

     0     0  290.18674    0    6  278.68601  290.18674  4.13%     -    0s
H    0     0                     280.5651520  290.18674  3.43%     -    0s
H    0     0                     282.5385445  290.18674  2.71%     -    0s
     0     0  290.11842    0   15  282.53854  290.11842  2.68%     -    0s
     0     0  290.11842    0   15  282.53854  290.11842  2.68%     -    0s
     0     0  290.10246    0   20  282.53854  290.10246  2.68%     -    1s
     0     0  290.10235    0   19  282.53854  290.10235  2.68%     -    1s
     0     0  290.07528    0   21  282.53854  290.07528  2.67%     -    1s
     0     0  290.07327    0   20  282.53854  290.07327  2.67%     -    1s
     0     0  289.95516    0   21  282.53854  289.95516  2.62%     -    2s
H    0     0                     284.0088308  289.95516  2.09%     -    2s
     0     0  289.95516    0   23  284.00883  289.95516  2.09%     -    2s
     0     0  289.95516    0   20  284.00883  289.95516  2.09%     -    2s
     0     0  289.95379    0   19  284.00883  289.95379  2.09%     -    2s
     0     0  289.87637    0   26  284.00883  289.87637  2.07%     -    2s
     0     0  289.79002    0   23  284.00883  289.79002  2.04%     -    2s
     0     0  289.77638    0   26  284.00883  289.77638  2.03%     -    3s
     0     0  289.77638    0   27  284.00883  289.77638  2.03%     -    3s
     0     0  289.76213    0   24  284.00883  289.76213  2.03%     -    3s
     0     0  289.75818    0   23  284.00883  289.75818  2.02%     -    3s
     0     2  289.75818    0   23  284.00883  289.75818  2.02%     -    4s
     1     4  289.75818    1   17  284.00883  289.75818  2.02%  1027    5s
*   20    10               4     286.4827850  289.75818  1.14%   586    7s
H   38    14                     286.4926980  289.72163  1.13%   495    9s
*   41    14               6     286.5435209  289.72163  1.11%   473    9s
    44    14  289.72163    7    6  286.54352  289.72163  1.11%   444   10s
   186    31  288.68794   13    4  286.54352  289.27744  0.95%   279   15s
   323    26  287.15811   18    2  286.54352  289.24148  0.94%   242   20s
   493    31  289.13230   18    6  286.54352  289.13230  0.90%   218   25s
   791    34  288.27550   25    4  286.54352  288.64545  0.73%   191   30s
*  849    43              27     286.5940661  288.64545  0.72%   186   30s
  1041    11  286.71257   31    2  286.59407  287.66269  0.37%   167   35s

Cutting planes:
  Gomory: 2
  MIR: 88
  Flow cover: 20
  RLT: 32
  Relax-and-lift: 15

Explored 1099 nodes (188188 simplex iterations) in 36.35 seconds (10.52 work units)
Thread count was 20 (of 20 available processors)

Solution count 8: 286.594 286.544 286.493 ... 278.686

Optimal solution found (tolerance 1.00e-04)
Best objective 2.865940661323e+02, best bound 2.865940661323e+02, gap 0.0000%



#########node  1
V1.8
#########node  2
V2.9
#########node  3
V1.7
#########node  4
1.0000000000000002,0.0
#########node  5
1.6653345369377348e-16,0.9999999999999999
#########node  6
0.781818181818182,0.2181818181818182
#########node  7
1.0,0.0


Total Solving Time 37.305851459503174
obj value 286.59406613227463
Policy Regret train (Sum) 3.819270947054313
Best Treatment Found train (%) 73.8
treatment classification acc train (%) 33.2
Policy Regret test (Sum) 36.35067388096685
Best Treatment Found test (%) 82.19
treatment classification acc test (%) 35.620000000000005
